19 99
34 159
4 93
47 50
3 130
3 66
23 86
2 13
10 179
85 10
16 133
4 118
71 37
56 39
11 57
14 3
86 14
10 174
24 173
4 138
12 91
94 36
100 40
65 48
16 190
62 35
32 18
5 49
33 4
5 194
27 134
13 91
7 82
12 156
11 190
24 8
35 156
38 77
22 171
10 9
83 3
54 35
15 86
37 150
32 110
8 139
16 181
42 78
43 35
7 112
53 69
13 42
24 18
68 14
37 153
33 144
9 159
3 95
46 45
94 20
25 36
28 63
18 14
13 2
69 11
79 27
10 44
3 97
4 19
1 63
11 67
81 16
83 18
78 61
93 40
70 79
6 71
15 64
28 99
64 29
41 77
29 115
28 130
21 99
10 83
22 146
6 115
56 37
43 121
30 134
11 189
67 15
16 113
38 28
11 60
45 85
4 159
74 3
38 59
9 21
